(set-option :produce-models true); benchmark generated from python API
(set-info :status unknown)
(declare-fun l_1_0_9 () Real)
(declare-fun l_1_0_8 () Real)
(declare-fun l_1_0_7 () Real)
(declare-fun l_1_0_6 () Real)
(declare-fun l_1_0_5 () Real)
(declare-fun l_1_0_4 () Real)
(declare-fun l_1_0_3 () Real)
(declare-fun l_1_0_2 () Real)
(declare-fun l_1_0_1 () Real)
(declare-fun _a_0_ () Real)
(declare-fun l_1_0_10 () Real)
(declare-fun _a_1_ () Real)
(declare-fun l_1_0_11 () Real)
(declare-fun _a_2_ () Real)
(declare-fun l_1_0_14 () Real)
(declare-fun l_1_0_13 () Real)
(declare-fun l_1_0_12 () Real)
(declare-fun _a_3_ () Real)
(declare-fun _a_4_ () Real)
(declare-fun _a_5_ () Real)
(declare-fun l_1_1_8 () Real)
(declare-fun l_1_1_6 () Real)
(declare-fun l_1_1_5 () Real)
(declare-fun l_1_1_4 () Real)
(declare-fun l_1_1_2 () Real)
(declare-fun l_1_1_15 () Real)
(declare-fun l_1_1_14 () Real)
(declare-fun l_1_1_12 () Real)
(declare-fun l_1_1_11 () Real)
(declare-fun l_1_1_1 () Real)
(declare-fun l_1_1_9 () Real)
(declare-fun l_1_1_7 () Real)
(declare-fun l_1_1_3 () Real)
(declare-fun l_1_1_13 () Real)
(declare-fun l_1_1_10 () Real)
(declare-fun l_1_1_16 () Real)
(declare-fun l_1_1_20 () Real)
(declare-fun l_1_1_19 () Real)
(declare-fun l_1_1_18 () Real)
(declare-fun l_1_1_17 () Real)
(declare-fun l_1_2_8 () Real)
(declare-fun l_1_2_7 () Real)
(declare-fun l_1_2_4 () Real)
(declare-fun l_1_2_15 () Real)
(declare-fun l_1_2_14 () Real)
(declare-fun l_1_2_13 () Real)
(declare-fun l_1_2_12 () Real)
(declare-fun l_1_2_11 () Real)
(declare-fun l_1_2_10 () Real)
(declare-fun l_1_2_1 () Real)
(declare-fun l_1_2_9 () Real)
(declare-fun l_1_2_6 () Real)
(declare-fun l_1_2_5 () Real)
(declare-fun l_1_2_3 () Real)
(declare-fun l_1_2_2 () Real)
(declare-fun l_1_2_19 () Real)
(declare-fun l_1_2_17 () Real)
(declare-fun l_1_2_18 () Real)
(declare-fun l_1_2_16 () Real)
(declare-fun l_1_2_20 () Real)
(assert
 (let ((?x46 (* l_1_0_9 l_1_0_9)))
 (let ((?x53 (- (- (- _a_0_ (* 1.0 l_1_0_1)) (* 1.0 l_1_0_2)) l_1_0_3)))
 (let ((?x47 (- (- (- (- ?x53 (* 1.0 l_1_0_4)) l_1_0_5) l_1_0_6) (* 1.0 l_1_0_7))))
 (= (- (- ?x47 l_1_0_8) ?x46) 0.0)))))
(assert
 (= (- _a_1_ (* (* 2.0 l_1_0_10) l_1_0_9)) 0.0))
(assert
 (let ((?x1405 (* 2.0 l_1_0_4)))
 (let ((?x1402 (* l_1_0_11 l_1_0_11)))
 (let ((?x1404 (+ (- (- (+ _a_2_ l_1_0_1) (* l_1_0_10 l_1_0_10)) ?x1402) l_1_0_2)))
 (= (+ (+ ?x1404 ?x1405) l_1_0_7) 0.0)))))
(assert
 (let ((?x1405 (* 2.0 l_1_0_4)))
 (let ((?x1042 (* l_1_0_14 l_1_0_14)))
 (let ((?x1375 (* l_1_0_13 l_1_0_13)))
 (let ((?x1335 (+ (- (- (- (+ _a_3_ l_1_0_1) (* l_1_0_12 l_1_0_12)) ?x1375) ?x1042) l_1_0_2)))
 (= (+ (+ ?x1335 ?x1405) l_1_0_7) 0.0))))))
(assert
 (let ((?x1260 (- (- _a_4_ (* (* 2.0 l_1_0_10) l_1_0_12)) (* (* 2.0 l_1_0_11) l_1_0_13))))
 (= ?x1260 0.0)))
(assert
 (= (- _a_5_ (* (* 2.0 l_1_0_12) l_1_0_9)) 0.0))
(assert
 (= (- l_1_0_4) 0.0))
(assert
 (= (* (- 2.0) l_1_0_4) 0.0))
(assert
 (= (- l_1_0_4) 0.0))
(assert
 (>= l_1_0_1 0.0))
(assert
 (>= l_1_0_2 0.0))
(assert
 (>= l_1_0_3 0.0))
(assert
 (>= l_1_0_4 0.0))
(assert
 (>= l_1_0_5 0.0))
(assert
 (>= l_1_0_6 0.0))
(assert
 (>= l_1_0_7 0.0))
(assert
 (>= l_1_0_8 0.0))
(assert
 (>= l_1_0_9 0.0))
(assert
 (>= l_1_0_11 0.0))
(assert
 (>= l_1_0_14 0.0))
(assert
 (let ((?x1089 (* 3.0 l_1_1_6)))
 (let ((?x1085 (* 3.0 l_1_1_2)))
 (let ((?x1083 (* l_1_1_15 l_1_1_15)))
 (let ((?x1145 (* 3.0 l_1_1_12)))
 (let ((?x1139 (* 9.0 l_1_1_1)))
 (let ((?x1065 (* _a_0_ l_1_1_7)))
 (let ((?x1172 (* _a_0_ l_1_1_3)))
 (let ((?x1174 (- (- (- (* (* 3.0 _a_0_) l_1_1_10) (* _a_0_ l_1_1_13)) ?x1172) ?x1065)))
 (let ((?x1142 (- (- (+ ?x1174 (* (* 3.0 _a_0_) l_1_1_9)) ?x1139) (* (* l_1_1_11 _a_0_) _a_0_))))
 (let ((?x1088 (- (- (+ (- (- (+ ?x1142 ?x1145) l_1_1_14) ?x1083) ?x1085) l_1_1_4) l_1_1_5)))
 (= (+ (- (+ ?x1088 ?x1089) l_1_1_8) 1.0) 0.0))))))))))))
(assert
 (let ((?x896 (* _a_1_ l_1_1_7)))
 (let ((?x893 (* _a_1_ l_1_1_3)))
 (let ((?x891 (* _a_1_ l_1_1_13)))
 (let ((?x890 (+ (* (* (* (- 2.0) _a_0_) _a_1_) l_1_1_11) (* (* 3.0 _a_1_) l_1_1_10))))
 (let ((?x899 (+ (- (- (- ?x890 ?x891) ?x893) ?x896) (* (* 3.0 _a_1_) l_1_1_9))))
 (= (+ (- ?x899 (* (* 2.0 l_1_1_15) l_1_1_16)) 1.0) 0.0)))))))
(assert
 (let ((?x699 (* l_1_1_20 l_1_1_20)))
 (let ((?x30 (* l_1_1_19 l_1_1_19)))
 (let ((?x826 (* l_1_1_18 l_1_1_18)))
 (let ((?x334 (* 6.0 l_1_1_1)))
 (let ((?x858 (* _a_3_ l_1_1_7)))
 (let ((?x859 (+ (- (- (* (- _a_3_) l_1_1_13) (* _a_3_ l_1_1_3)) ?x858) ?x334)))
 (let ((?x824 (- (- ?x859 (* l_1_1_10 (- _a_0_ (* 3.0 _a_3_)))) (* l_1_1_11 (+ (* (* 2.0 _a_0_) _a_3_) (* _a_5_ _a_5_))))))
 (let ((?x828 (- (- (- (- (- (- ?x824 l_1_1_12) ?x826) ?x30) l_1_1_2) ?x699) l_1_1_6)))
 (= (- (- ?x828 (* l_1_1_9 (- _a_0_ (* 3.0 _a_3_)))) (/ 1.0 5.0)) 0.0))))))))))
(assert
 (let ((?x398 (* l_1_1_17 l_1_1_17)))
 (let ((?x396 (* l_1_1_16 l_1_1_16)))
 (let ((?x334 (* 6.0 l_1_1_1)))
 (let ((?x436 (* _a_2_ l_1_1_7)))
 (let ((?x439 (+ (- (- (* (- _a_2_) l_1_1_13) (* _a_2_ l_1_1_3)) ?x436) ?x334)))
 (let ((?x395 (- (- ?x439 (* l_1_1_10 (- _a_0_ (* 3.0 _a_2_)))) (* l_1_1_11 (+ (* (* 2.0 _a_0_) _a_2_) (* _a_1_ _a_1_))))))
 (let ((?x329 (- (- (- (- (- (- ?x395 l_1_1_12) ?x396) ?x398) l_1_1_2) l_1_1_6) (* l_1_1_9 (- _a_0_ (* 3.0 _a_2_))))))
 (= ?x329 0.0)))))))))
(assert
 (let ((?x223 (- (- (- (* (- _a_3_) l_1_1_10) (* _a_3_ l_1_1_9)) l_1_1_1) (* (* l_1_1_11 _a_3_) _a_3_))))
 (= ?x223 0.0)))
(assert
 (let ((?x154 (- (- (* (- 2.0) l_1_1_1) (* l_1_1_10 (+ _a_2_ _a_3_))) (* l_1_1_11 (+ (* (* 2.0 _a_2_) _a_3_) (* _a_4_ _a_4_))))))
 (= (- ?x154 (* l_1_1_9 (+ _a_2_ _a_3_))) 0.0)))
(assert
 (let ((?x963 (- (- (- (* (- _a_2_) l_1_1_10) (* _a_2_ l_1_1_9)) l_1_1_1) (* (* l_1_1_11 _a_2_) _a_2_))))
 (= ?x963 0.0)))
(assert
 (let ((?x686 (+ (* (* 2.0 _a_0_) _a_4_) (* (* 2.0 _a_1_) _a_5_))))
 (let ((?x515 (* _a_4_ l_1_1_7)))
 (let ((?x510 (* _a_4_ l_1_1_3)))
 (let ((?x519 (- (- (- (* (* 3.0 _a_4_) l_1_1_10) (* _a_4_ l_1_1_13)) ?x510) ?x515)))
 (let ((?x684 (- (- (+ ?x519 (* (* 3.0 _a_4_) l_1_1_9)) (* l_1_1_11 ?x686)) (* (* 2.0 l_1_1_16) l_1_1_18))))
 (= (- ?x684 (* (* 2.0 l_1_1_17) l_1_1_19)) 0.0)))))))
(assert
 (let ((?x767 (* _a_5_ l_1_1_7)))
 (let ((?x754 (* _a_5_ l_1_1_3)))
 (let ((?x753 (* _a_5_ l_1_1_13)))
 (let ((?x748 (+ (* (* (* (- 2.0) _a_0_) _a_5_) l_1_1_11) (* (* 3.0 _a_5_) l_1_1_10))))
 (let ((?x1346 (+ (- (- (- ?x748 ?x753) ?x754) ?x767) (* (* 3.0 _a_5_) l_1_1_9))))
 (= (- ?x1346 (* (* 2.0 l_1_1_15) l_1_1_18)) 0.0)))))))
(assert
 (let ((?x1125 (+ (* (* 2.0 _a_1_) _a_3_) (* (* 2.0 _a_4_) _a_5_))))
 (let ((?x1126 (- (- (* (- _a_1_) l_1_1_10) (* _a_1_ l_1_1_9)) (* l_1_1_11 ?x1125))))
 (= ?x1126 0.0))))
(assert
 (let ((?x1247 (* _a_4_ l_1_1_9)))
 (let ((?x1214 (* _a_4_ l_1_1_10)))
 (= (- (- (* (* (* (- 2.0) _a_3_) _a_4_) l_1_1_11) ?x1214) ?x1247) 0.0))))
(assert
 (let ((?x595 (* _a_5_ l_1_1_9)))
 (let ((?x1351 (* _a_5_ l_1_1_10)))
 (= (- (- (* (* (* (- 2.0) _a_3_) _a_5_) l_1_1_11) ?x1351) ?x595) 0.0))))
(assert
 (let ((?x25 (* _a_1_ l_1_1_9)))
 (let ((?x40 (* _a_1_ l_1_1_10)))
 (= (- (- (* (* (* (- 2.0) _a_1_) _a_2_) l_1_1_11) ?x40) ?x25) 0.0))))
(assert
 (let ((?x1247 (* _a_4_ l_1_1_9)))
 (let ((?x1214 (* _a_4_ l_1_1_10)))
 (= (- (- (* (* (* (- 2.0) _a_2_) _a_4_) l_1_1_11) ?x1214) ?x1247) 0.0))))
(assert
 (let ((?x848 (+ (* (* 2.0 _a_1_) _a_4_) (* (* 2.0 _a_2_) _a_5_))))
 (let ((?x162 (- (- (* (- _a_5_) l_1_1_10) (* _a_5_ l_1_1_9)) (* l_1_1_11 ?x848))))
 (= ?x162 0.0))))
(assert
 (>= l_1_1_1 0.0))
(assert
 (>= l_1_1_2 0.0))
(assert
 (>= l_1_1_3 0.0))
(assert
 (>= l_1_1_4 0.0))
(assert
 (>= l_1_1_5 0.0))
(assert
 (>= l_1_1_6 0.0))
(assert
 (>= l_1_1_7 0.0))
(assert
 (>= l_1_1_8 0.0))
(assert
 (>= l_1_1_9 0.0))
(assert
 (>= l_1_1_10 0.0))
(assert
 (>= l_1_1_11 0.0))
(assert
 (>= l_1_1_12 0.0))
(assert
 (>= l_1_1_13 0.0))
(assert
 (>= l_1_1_14 0.0))
(assert
 (>= l_1_1_15 0.0))
(assert
 (>= l_1_1_17 0.0))
(assert
 (>= l_1_1_20 0.0))
(assert
 (let ((?x170 (* 9.0 l_1_2_8)))
 (let ((?x921 (* l_1_2_15 l_1_2_15)))
 (let ((?x1420 (* 3.0 l_1_2_12)))
 (let ((?x1043 (* 3.0 l_1_2_11)))
 (let ((?x1436 (* 3.0 l_1_2_10)))
 (let ((?x1438 (* 1.0 _a_4_)))
 (let ((?x167 (* _a_0_ l_1_2_9)))
 (let ((?x616 (* _a_0_ l_1_2_6)))
 (let ((?x619 (- (- (* (- _a_0_) l_1_2_2) (* (* 3.0 _a_0_) l_1_2_3)) (* (* 3.0 _a_0_) l_1_2_5))))
 (let ((?x1432 (+ (+ (+ (- (- ?x619 ?x616) ?x167) _a_0_) (* 1.0 _a_1_)) (* 1.0 _a_2_))))
 (let ((?x1435 (- (- (- (+ ?x1432 (* 1.0 _a_3_)) ?x1438) (* 1.0 _a_5_)) l_1_2_1)))
 (let ((?x922 (- (- (- (- (- (- ?x1435 ?x1436) ?x1043) ?x1420) l_1_2_13) l_1_2_14) ?x921)))
 (= (- (- (- ?x922 l_1_2_4) (* (* l_1_2_7 _a_0_) _a_0_)) ?x170) 0.0))))))))))))))
(assert
 (let ((?x686 (+ (* (* 2.0 _a_0_) _a_4_) (* (* 2.0 _a_1_) _a_5_))))
 (let ((?x609 (* 2.0 _a_4_)))
 (let ((?x1363 (* _a_4_ l_1_2_9)))
 (let ((?x1361 (* _a_4_ l_1_2_6)))
 (let ((?x1359 (- (- (+ (* 2.0 _a_1_) (* 4.0 _a_2_)) (* _a_4_ l_1_2_2)) (* (* 3.0 _a_4_) l_1_2_3))))
 (let ((?x1220 (- (- (- (- ?x1359 (* (* 3.0 _a_4_) l_1_2_5)) ?x1361) ?x1363) ?x609)))
 (let ((?x1453 (- (- ?x1220 (* (* 2.0 l_1_2_16) l_1_2_18)) (* (* 2.0 l_1_2_17) l_1_2_19))))
 (= (- ?x1453 (* l_1_2_7 ?x686)) 0.0)))))))))
(assert
 (let ((?x553 (* 6.0 l_1_2_8)))
 (let ((?x1180 (* l_1_2_17 l_1_2_17)))
 (let ((?x1178 (* l_1_2_16 l_1_2_16)))
 (let ((?x1438 (* 1.0 _a_4_)))
 (let ((?x149 (* 2.0 _a_2_)))
 (let ((?x770 (* _a_2_ l_1_2_9)))
 (let ((?x718 (+ (- (- (- _a_1_ (* _a_2_ l_1_2_2)) (* _a_2_ l_1_2_6)) ?x770) ?x149)))
 (let ((?x1177 (+ (+ (+ (- (+ ?x718 _a_3_) ?x1438) l_1_2_10) l_1_2_11) l_1_2_12)))
 (let ((?x1430 (- (- (- ?x1177 ?x1178) ?x1180) (* l_1_2_3 (+ (- _a_0_) (* 3.0 _a_2_))))))
 (let ((?x174 (- (- ?x1430 (* l_1_2_5 (+ (- _a_0_) (* 3.0 _a_2_)))) (* l_1_2_7 (+ (* (* 2.0 _a_0_) _a_2_) (* _a_1_ _a_1_))))))
 (= (+ ?x174 ?x553) 0.0))))))))))))
(assert
 (let ((?x560 (* 2.0 l_1_2_8)))
 (let ((?x1327 (* 4.0 _a_2_)))
 (let ((?x849 (+ ?x1327 _a_4_)))
 (let ((?x1294 (- (- ?x849 (* l_1_2_3 (- (- _a_2_) _a_3_))) (* l_1_2_5 (- (- _a_2_) _a_3_)))))
 (let ((?x1293 (- ?x1294 (* l_1_2_7 (+ (* (* 2.0 _a_2_) _a_3_) (* _a_4_ _a_4_))))))
 (= (- ?x1293 ?x560) 0.0)))))))
(assert
 (let ((?x780 (* _a_4_ l_1_2_5)))
 (let ((?x1291 (* _a_4_ l_1_2_3)))
 (let ((?x640 (+ (+ (* (* (* (- 2.0) _a_2_) _a_4_) l_1_2_7) (* 4.0 _a_2_)) ?x1291)))
 (= (+ ?x640 ?x780) 0.0)))))
(assert
 (let ((?x1504 (- (+ (+ (* _a_2_ l_1_2_3) (* _a_2_ l_1_2_5)) _a_2_) (* (* l_1_2_7 _a_2_) _a_2_))))
 (= (- ?x1504 l_1_2_8) 0.0)))
(assert
 (let ((?x597 (- (+ (+ (* _a_3_ l_1_2_3) (* _a_3_ l_1_2_5)) _a_3_) (* (* l_1_2_7 _a_3_) _a_3_))))
 (= (- ?x597 l_1_2_8) 0.0)))
(assert
 (let ((?x1125 (+ (* (* 2.0 _a_1_) _a_3_) (* (* 2.0 _a_4_) _a_5_))))
 (let ((?x786 (* 2.0 _a_3_)))
 (let ((?x534 (- (+ (+ (* _a_1_ l_1_2_3) (* _a_1_ l_1_2_5)) ?x786) (* l_1_2_7 ?x1125))))
 (= ?x534 0.0)))))
(assert
 (let ((?x553 (* 6.0 l_1_2_8)))
 (let ((?x512 (* l_1_2_20 l_1_2_20)))
 (let ((?x672 (* l_1_2_19 l_1_2_19)))
 (let ((?x1456 (* l_1_2_18 l_1_2_18)))
 (let ((?x1438 (* 1.0 _a_4_)))
 (let ((?x786 (* 2.0 _a_3_)))
 (let ((?x446 (* _a_3_ l_1_2_9)))
 (let ((?x447 (- (- (- (* (- _a_3_) l_1_2_2) (* _a_3_ l_1_2_6)) ?x446) ?x786)))
 (let ((?x774 (+ (+ (+ (+ (+ ?x447 ?x1438) _a_5_) l_1_2_10) l_1_2_11) l_1_2_12)))
 (let ((?x1515 (- (- (- (- ?x774 ?x1456) ?x672) ?x512) (* l_1_2_3 (+ (- _a_0_) (* 3.0 _a_3_))))))
 (let ((?x498 (- (- ?x1515 (* l_1_2_5 (+ (- _a_0_) (* 3.0 _a_3_)))) (* l_1_2_7 (+ (* (* 2.0 _a_0_) _a_3_) (* _a_5_ _a_5_))))))
 (= (+ ?x498 ?x553) 0.0)))))))))))))
(assert
 (let ((?x1438 (* 1.0 _a_4_)))
 (let ((?x786 (* 2.0 _a_3_)))
 (let ((?x541 (* _a_1_ l_1_2_9)))
 (let ((?x539 (* _a_1_ l_1_2_6)))
 (let ((?x674 (* _a_1_ l_1_2_2)))
 (let ((?x569 (- (- (* (* (* (- 2.0) _a_0_) _a_1_) l_1_2_7) ?x674) (* (* 3.0 _a_1_) l_1_2_3))))
 (let ((?x467 (- (- (- (- ?x569 (* (* 3.0 _a_1_) l_1_2_5)) ?x539) ?x541) ?x786)))
 (= (- (+ (+ ?x467 ?x1438) _a_5_) (* (* 2.0 l_1_2_15) l_1_2_16)) 0.0)))))))))
(assert
 (let ((?x609 (* 2.0 _a_4_)))
 (let ((?x780 (* _a_4_ l_1_2_5)))
 (let ((?x1291 (* _a_4_ l_1_2_3)))
 (let ((?x74 (+ (+ (+ (* (* (* (- 2.0) _a_3_) _a_4_) l_1_2_7) ?x1291) ?x780) ?x609)))
 (= ?x74 0.0))))))
(assert
 (let ((?x848 (+ (* (* 2.0 _a_1_) _a_4_) (* (* 2.0 _a_2_) _a_5_))))
 (let ((?x1533 (* _a_5_ l_1_2_5)))
 (let ((?x1536 (- (+ (+ (* 2.0 _a_4_) (* _a_5_ l_1_2_3)) ?x1533) (* l_1_2_7 ?x848))))
 (= ?x1536 0.0)))))
(assert
 (let ((?x400 (* _a_1_ l_1_2_5)))
 (let ((?x399 (* _a_1_ l_1_2_3)))
 (let ((?x1565 (+ (+ (+ (* (* (* (- 2.0) _a_1_) _a_2_) l_1_2_7) ?x399) ?x400) _a_4_)))
 (= ?x1565 0.0)))))
(assert
 (let ((?x1582 (* _a_5_ l_1_2_9)))
 (let ((?x1580 (* _a_5_ l_1_2_6)))
 (let ((?x1574 (* _a_5_ l_1_2_2)))
 (let ((?x1577 (- (- (* (* (* (- 2.0) _a_0_) _a_5_) l_1_2_7) ?x1574) (* (* 3.0 _a_5_) l_1_2_3))))
 (let ((?x1585 (- (- (- (- ?x1577 (* (* 3.0 _a_5_) l_1_2_5)) ?x1580) ?x1582) (* (* 2.0 l_1_2_15) l_1_2_18))))
 (= ?x1585 0.0)))))))
(assert
 (let ((?x1533 (* _a_5_ l_1_2_5)))
 (let ((?x1531 (* _a_5_ l_1_2_3)))
 (= (+ (+ (* (* (* (- 2.0) _a_3_) _a_5_) l_1_2_7) ?x1531) ?x1533) 0.0))))
(assert
 (>= l_1_2_1 0.0))
(assert
 (>= l_1_2_2 0.0))
(assert
 (>= l_1_2_3 0.0))
(assert
 (>= l_1_2_4 0.0))
(assert
 (>= l_1_2_5 0.0))
(assert
 (>= l_1_2_6 0.0))
(assert
 (>= l_1_2_7 0.0))
(assert
 (>= l_1_2_8 0.0))
(assert
 (>= l_1_2_9 0.0))
(assert
 (>= l_1_2_10 0.0))
(assert
 (>= l_1_2_11 0.0))
(assert
 (>= l_1_2_12 0.0))
(assert
 (>= l_1_2_13 0.0))
(assert
 (>= l_1_2_14 0.0))
(assert
 (>= l_1_2_15 0.0))
(assert
 (>= l_1_2_17 0.0))
(assert
 (>= l_1_2_20 0.0))
(check-sat)
(get-model)